max: 1.0v1 + 6.0v2  - 1.0v3 + 5.0v4  - 4.0v5 + 4.0v6 + 4.0v7  - 2.0v8 + 2.0v9  - 10.0v10  - 3.0v11  - 5.0v12 + 4.0v13 + 2.0v14 + 2.0v15  - 1.0v18 + 1.0v20 + 1.0v21  - 4.0v22  - 4.0v23 + 2.0v24 + 2.0v25  - 1.0v27  - 3.0v28 + 1.0v29 + 3.0v30  - 4.0v31  - 4.0v33 + 5.0v34 + 1.0v35 + 1.0v39 + 2.0v40 + 4.0v41 + 5.0v42 + 4.0v43 + 7.0v44  - 3.0v45  - 6.0v46 + 5.0v47 + 4.0v48 + 4.0v49  - 1.0v50;

v15 + 1 - v26 + v23 >= 0;
v14 + v43 + v20 >= 0;
1 - v5 + 1 - v14 + 1 - v25 >= 0;
v30 + 1 - v38 + v27 >= 0;
1 - v48 + v26 + v35 >= 0;
v41 + 1 - v39 + v42 >= 0;
v38 + 1 - v6 + 1 - v17 >= 0;
1 - v11 + 1 - v32 + 1 - v42 >= 0;
v25 + 1 - v6 + 1 - v16 >= 0;
1 - v20 + 1 - v28 + v4 >= 0;
1 - v16 + 1 - v33 + 1 - v11 >= 0;
v16 + v32 + 1 - v1 >= 0;
v32 + v40 + 1 - v21 >= 0;
1 - v42 + 1 - v21 + v16 >= 0;
v13 + v27 + v29 >= 0;
1 - v37 + 1 - v18 + 1 - v5 >= 0;
1 - v32 + v11 + v33 >= 0;
1 - v15 + v8 + 1 - v32 >= 0;
v23 + 1 - v43 + v47 >= 0;
1 - v28 + v20 + v34 >= 0;
1 - v31 + 1 - v39 + 1 - v10 >= 0;
1 - v10 + 1 - v45 + v50 >= 0;
1 - v3 + v43 + 1 - v26 >= 0;
v16 + v46 + 1 - v40 >= 0;
v17 + 1 - v39 + v2 >= 0;
v6 + 1 - v14 + 1 - v11 >= 0;
v5 + 1 - v2 + v40 >= 0;
1 - v22 + 1 - v46 + 1 - v10 >= 0;
1 - v44 + v46 + 1 - v29 >= 0;
v16 + v25 + v28 >= 0;
1 - v39 + 1 - v31 + v25 >= 0;
1 - v45 + v1 + v19 >= 0;
v1 + v26 + 1 - v8 >= 0;
v44 + 1 - v16 + 1 - v34 >= 0;
1 - v12 + 1 - v15 + v40 >= 0;
v21 + v20 + 1 - v26 >= 0;
1 - v15 + v17 + v11 >= 0;
v49 + v46 + v30 >= 0;
v2 + 1 - v33 + 1 - v1 >= 0;
v35 + 1 - v46 + 1 - v6 >= 0;
1 - v25 + v48 + 1 - v15 >= 0;
v42 + 1 - v32 + v47 >= 0;
v24 + 1 - v28 + 1 - v14 >= 0;
v20 + v39 + 1 - v14 >= 0;
v11 + v48 + v41 >= 0;
1 - v11 + 1 - v46 + 1 - v16 >= 0;
v7 + 1 - v36 + 1 - v16 >= 0;
1 - v21 + v11 + v24 >= 0;
1 - v15 + v34 + v49 >= 0;
v23 + 1 - v14 + 1 - v8 >= 0;
1 - v31 + v42 + v25 >= 0;
1 - v31 + 1 - v23 + 1 - v5 >= 0;
v42 + 1 - v47 + v2 >= 0;
v24 + v44 + v49 >= 0;
1 - v33 + v44 + 1 - v16 >= 0;
1 - v20 + v38 + v45 >= 0;
v15 + v27 + v18 >= 0;
v2 + 1 - v49 + 1 - v11 >= 0;
v40 + 1 - v22 + 1 - v25 >= 0;
1 - v45 + 1 - v37 + 1 - v42 >= 0;
1 - v5 + v31 + 1 - v25 >= 0;
1 - v12 + 1 - v29 + v5 >= 0;
1 - v38 + v41 + 1 - v6 >= 0;
1 - v24 + v46 + 1 - v5 >= 0;
v24 + 1 - v1 + 1 - v36 >= 0;
1 - v3 + 1 - v40 + v9 >= 0;
v5 + 1 - v50 + 1 - v2 >= 0;
v16 + 1 - v32 + v21 >= 0;
1 - v37 + 1 - v33 + v9 >= 0;
v8 + v40 + v42 >= 0;
v26 + v15 + v30 >= 0;
v6 + 1 - v2 + 1 - v5 >= 0;
v31 + v46 + v27 >= 0;
1 - v5 + 1 - v46 + v14 >= 0;
v38 + 1 - v24 + 1 - v13 >= 0;
v36 + v13 + 1 - v37 >= 0;
1 - v18 + v20 + 1 - v8 >= 0;
v42 + 1 - v40 + 1 - v1 >= 0;
1 - v1 + 1 - v8 + v26 >= 0;
v9 + v41 + v24 >= 0;
1 - v20 + v36 + 1 - v46 >= 0;
1 - v3 + 1 - v20 + 1 - v46 >= 0;
1 - v41 + 1 - v27 + v24 >= 0;
v37 + v32 + v26 >= 0;
1 - v25 + v44 + v48 >= 0;
v2 + 1 - v3 + 1 - v37 >= 0;
v23 + v36 + 1 - v38 >= 0;
v34 + v43 + v20 >= 0;
v47 + 1 - v35 + 1 - v18 >= 0;
v38 + 1 - v33 + 1 - v39 >= 0;
v21 + v2 + 1 - v46 >= 0;
1 - v46 + 1 - v28 + 1 - v21 >= 0;
1 - v12 + 1 - v20 + 1 - v32 >= 0;
v37 + 1 - v31 + v27 >= 0;
1 - v46 + v32 + 1 - v47 >= 0;
v29 + 1 - v22 + v49 >= 0;
1 - v10 + v25 + v32 >= 0;
v20 + 1 - v19 + v36 >= 0;
v44 + 1 - v36 + 1 - v2 >= 0;
1 - v35 + v34 + 1 - v26 >= 0;
1 - v28 + v47 + 1 - v49 >= 0;
v29 + v30 + v2 >= 0;
v27 + 1 - v29 + 1 - v28 >= 0;
1 - v33 + 1 - v24 + v13 >= 0;
v29 + v28 + v36 >= 0;
1 - v31 + v37 + v50 >= 0;
v7 + v41 + v49 >= 0;
1 - v17 + 1 - v27 + v38 >= 0;
v22 + 1 - v41 + 1 - v35 >= 0;
1 - v33 + v11 + v21 >= 0;
1 - v19 + v6 + 1 - v23 >= 0;
v4 + v8 + 1 - v41 >= 0;
v29 + v35 + v37 >= 0;
1 - v45 + 1 - v44 + v30 >= 0;
v32 + v37 + v35 >= 0;
1 - v38 + 1 - v11 + v30 >= 0;
1 - v38 + 1 - v36 + v13 >= 0;
1 - v27 + v28 + v48 >= 0;
1 - v45 + v44 + 1 - v24 >= 0;
1 - v26 + v7 + 1 - v23 >= 0;
v32 + v24 + 1 - v10 >= 0;
v3 + 1 - v37 + v44 >= 0;
1 - v29 + v7 + v2 >= 0;
1 - v23 + 1 - v2 + v46 >= 0;
v34 + v21 + 1 - v23 >= 0;
1 - v36 + v47 + v8 >= 0;
v28 + v15 + v45 >= 0;
1 - v26 + v45 + 1 - v31 >= 0;
v30 + 1 - v45 + 1 - v40 >= 0;
v41 + 1 - v24 + v5 >= 0;
v47 + 1 - v16 + v4 >= 0;
v39 + v43 + 1 - v6 >= 0;
v35 + v3 + 1 - v10 >= 0;
v41 + v19 + v37 >= 0;
v6 + v33 + 1 - v26 >= 0;
v14 + 1 - v27 + 1 - v11 >= 0;
1 - v29 + 1 - v26 + 1 - v30 >= 0;
v15 + 1 - v20 + v41 >= 0;
1 - v22 + 1 - v35 + 1 - v9 >= 0;
v43 + 1 - v26 + 1 - v5 >= 0;
1 - v25 + v14 + 1 - v10 >= 0;
v21 + v27 + v6 >= 0;
v31 + v6 + v44 >= 0;
v34 + 1 - v5 + v24 >= 0;
v14 + v23 + v7 >= 0;
1 - v48 + v23 + v15 >= 0;
v10 + v50 + v39 >= 0;
1 - v35 + v42 + 1 - v10 >= 0;
v44 + v36 + 1 - v35 >= 0;
1 - v20 + 1 - v19 + v6 >= 0;
1 - v31 + 1 - v41 + v38 >= 0;
1 - v7 + v40 + v11 >= 0;
v49 + v39 + v13 >= 0;
v38 + 1 - v11 + v1 >= 0;
v5 + v48 + v25 >= 0;
v25 + 1 - v4 + 1 - v8 >= 0;
1 - v23 + v6 + 1 - v27 >= 0;
v6 + v49 + 1 - v20 >= 0;
1 - v34 + v44 + v47 >= 0;
v40 + 1 - v20 + 1 - v22 >= 0;
1 - v32 + v4 + 1 - v49 >= 0;
v26 + v38 + v3 >= 0;
v33 + 1 - v27 + v2 >= 0;
1 - v38 + v29 + v1 >= 0;
1 - v9 + v1 + v35 >= 0;
v25 + 1 - v46 + 1 - v18 >= 0;
v21 + 1 - v10 + 1 - v23 >= 0;
1 - v45 + v19 + 1 - v28 >= 0;
v34 + v43 + v36 >= 0;
v26 + v5 + 1 - v36 >= 0;
v31 + 1 - v15 + 1 - v17 >= 0;
1 - v24 + v9 + v20 >= 0;
1 - v23 + v15 + 1 - v30 >= 0;
v35 + v44 + 1 - v36 >= 0;
v20 + 1 - v37 + v44 >= 0;
v6 + 1 - v23 + 1 - v28 >= 0;
1 - v21 + 1 - v50 + v35 >= 0;
1 - v1 + v18 + 1 - v20 >= 0;
v24 + v1 + 1 - v23 >= 0;
1 - v49 + 1 - v40 + v20 >= 0;
1 - v5 + v1 + v34 >= 0;
1 - v8 + 1 - v43 + v9 >= 0;
v47 + v34 + 1 - v22 >= 0;
v46 + 1 - v38 + v39 >= 0;
v1 + 1 - v46 + 1 - v49 >= 0;
v32 + v43 + v45 >= 0;
1 - v25 + v33 + 1 - v10 >= 0;
v37 + 1 - v21 + 1 - v26 >= 0;
1 - v46 + 1 - v32 + v26 >= 0;
1 - v44 + v1 + v18 >= 0;
1 - v36 + v3 + v49 >= 0;
v47 + 1 - v44 + 1 - v5 >= 0;
v48 + v14 + 1 - v50 >= 0;
1 - v12 + v17 + v18 >= 0;
1 - v10 + 1 - v45 + 1 - v18 >= 0;
1 - v34 + v22 + v42 >= 0;
v5 + v49 + 1 - v3 >= 0;
1 - v38 + v2 + v42 >= 0;
1 - v24 + v36 + 1 - v30 >= 0;
1 - v9 + v33 + v26 >= 0;
v15 + v43 + 1 - v35 >= 0;
v16 + 1 - v29 + 1 - v34 >= 0;
1 - v46 + v26 + v39 >= 0;
1 - v1 + 1 - v36 + v49 >= 0;
1 - v12 + v36 + v4 >= 0;
1 - v50 + 1 - v27 + 1 - v6 >= 0;
v20 + v48 + 1 - v9 >= 0;
1 - v41 + 1 - v11 + 1 - v22 >= 0;
1 - v43 + 1 - v49 + 1 - v21 >= 0;
v14 + 1 - v42 + 1 - v33 >= 0;
1 - v30 + v29 + v22 >= 0;
v16 + 1 - v33 + v2 >= 0;
v21 + 1 - v27 + 1 - v43 >= 0;
1 - v49 + v25 + 1 - v48 >= 0;
v4 + v45 + v28 >= 0;
1 - v1 + v2 + 1 - v44 >= 0;
1 - v2 + 1 - v47 + v49 >= 0;
1 - v47 + v9 + v41 >= 0;
0 <= v1 <= 1;
0 <= v2 <= 1;
0 <= v3 <= 1;
0 <= v4 <= 1;
0 <= v5 <= 1;
0 <= v6 <= 1;
0 <= v7 <= 1;
0 <= v8 <= 1;
0 <= v9 <= 1;
0 <= v10 <= 1;
0 <= v11 <= 1;
0 <= v12 <= 1;
0 <= v13 <= 1;
0 <= v14 <= 1;
0 <= v15 <= 1;
0 <= v16 <= 1;
0 <= v17 <= 1;
0 <= v18 <= 1;
0 <= v19 <= 1;
0 <= v20 <= 1;
0 <= v21 <= 1;
0 <= v22 <= 1;
0 <= v23 <= 1;
0 <= v24 <= 1;
0 <= v25 <= 1;
0 <= v26 <= 1;
0 <= v27 <= 1;
0 <= v28 <= 1;
0 <= v29 <= 1;
0 <= v30 <= 1;
0 <= v31 <= 1;
0 <= v32 <= 1;
0 <= v33 <= 1;
0 <= v34 <= 1;
0 <= v35 <= 1;
0 <= v36 <= 1;
0 <= v37 <= 1;
0 <= v38 <= 1;
0 <= v39 <= 1;
0 <= v40 <= 1;
0 <= v41 <= 1;
0 <= v42 <= 1;
0 <= v43 <= 1;
0 <= v44 <= 1;
0 <= v45 <= 1;
0 <= v46 <= 1;
0 <= v47 <= 1;
0 <= v48 <= 1;
0 <= v49 <= 1;
0 <= v50 <= 1;
